Minimize
	value: tt

Subject to
tt + 1000 s_1_1 > 0.0
tt - t_1_1 - 1004.250026 s_1_1  + 2.125013 s_1_8  + 2.125013 s_1_7  > -981.459922
tt + 1000 s_2_1 > 0.0
tt - t_2_1 - 1003.975568 s_2_1  + 1.987784 s_2_8  + 1.987784 s_2_7  > -984.354736
tt + 1000 s_1_2 > 0.0
tt - t_1_2 - 1002.125013 s_1_2  + 2.125013 s_1_7  > -981.378336
tt + 1000 s_2_2 > 0.0
tt - t_2_2 - 1001.987784 s_2_2  + 1.987784 s_2_7  > -985.948881
tt + 1000 s_1_3 > 0.0
tt - t_1_3 - 1004.250026 s_1_3  + 2.125013 s_1_8  + 2.125013 s_1_7  > -998.272505
tt + 1000 s_2_3 > 0.0
tt - t_2_3 - 1003.975568 s_2_3  + 1.987784 s_2_8  + 1.987784 s_2_7  > -997.383422
tt + 1000 s_1_4 > 0.0
tt - t_1_4 - 1002.125013 s_1_4  + 2.125013 s_1_7  > -997.176143
tt + 1000 s_2_4 > 0.0
tt - t_2_4 - 1001.987784 s_2_4  + 1.987784 s_2_7  > -995.976803
tt + 1000 s_1_5 > 0.0
tt - t_1_5 - 1002.125013 s_1_5  + 2.125013 s_1_8  > -991.183422
tt + 1000 s_2_5 > 0.0
tt - t_2_5 - 1001.987784 s_2_5  + 1.987784 s_2_8  > -993.183561
tt + 1000 s_1_6 > 0.0
tt - t_1_6 - 1012.750079 s_1_6  + 2.125013 s_1_7  + 2.125013 s_1_2  + 2.125013 s_1_1  + 2.125013 s_1_3  + 2.125013 s_1_5  + 2.125013 s_1_4  > -998.768750
tt + 1000 s_2_6 > 0.0
tt - t_2_6 - 1011.926703 s_2_6  + 1.987784 s_2_7  + 1.987784 s_2_2  + 1.987784 s_2_1  + 1.987784 s_2_3  + 1.987784 s_2_5  + 1.987784 s_2_4  > -997.340300
tt + 1000 s_1_7 > 0.0
tt - t_1_7 - 1000.000000 s_1_7  > -973.923764
tt + 1000 s_2_7 > 0.0
tt - t_2_7 - 1000.000000 s_2_7  > -988.478389
tt + 1000 s_1_8 > 0.0
tt - t_1_8 - 1000.000000 s_1_8  > -974.218889
tt + 1000 s_2_8 > 0.0
tt - t_2_8 - 1000.000000 s_2_8  > -988.974700
s_1_1 + s_2_1 = 1
s_1_2 + s_2_2 = 1
s_1_3 + s_2_3 = 1
s_1_4 + s_2_4 = 1
s_1_5 + s_2_5 = 1
s_1_6 + s_2_6 = 1
s_1_7 + s_2_7 = 1
s_1_8 + s_2_8 = 1
s_1_1 + s_1_2 + 1000 r_1_1_2 >= 2
- s_1_1 - s_1_2 - 1000 r_1_1_2 >= -1001
t_1_1 - t_1_2 - 1000.000000 u_1_1_2 - 2.125013 s_1_2  + 2.125013 s_1_7  + 2000.000000 r_1_1_2 > -981.378336
s_2_1 + s_2_2 + 1000 r_2_1_2 >= 2
- s_2_1 - s_2_2 - 1000 r_2_1_2 >= -1001
t_2_1 - t_2_2 - 1000.000000 u_2_1_2 - 1.987784 s_2_2  + 1.987784 s_2_7  + 2000.000000 r_2_1_2 > -985.948881
s_1_1 + s_1_3 + 1000 r_1_1_3 >= 2
- s_1_1 - s_1_3 - 1000 r_1_1_3 >= -1001
t_1_1 - t_1_3 - 1000.000000 u_1_1_3 - 4.250026 s_1_3  + 2.125013 s_1_8  + 2.125013 s_1_7  + 2000.000000 r_1_1_3 > -998.272505
s_2_1 + s_2_3 + 1000 r_2_1_3 >= 2
- s_2_1 - s_2_3 - 1000 r_2_1_3 >= -1001
t_2_1 - t_2_3 - 1000.000000 u_2_1_3 - 3.975568 s_2_3  + 1.987784 s_2_8  + 1.987784 s_2_7  + 2000.000000 r_2_1_3 > -997.383422
s_1_1 + s_1_4 + 1000 r_1_1_4 >= 2
- s_1_1 - s_1_4 - 1000 r_1_1_4 >= -1001
t_1_1 - t_1_4 - 1000.000000 u_1_1_4 - 2.125013 s_1_4  + 2.125013 s_1_7  + 2000.000000 r_1_1_4 > -997.176143
s_2_1 + s_2_4 + 1000 r_2_1_4 >= 2
- s_2_1 - s_2_4 - 1000 r_2_1_4 >= -1001
t_2_1 - t_2_4 - 1000.000000 u_2_1_4 - 1.987784 s_2_4  + 1.987784 s_2_7  + 2000.000000 r_2_1_4 > -995.976803
s_1_1 + s_1_5 + 1000 r_1_1_5 >= 2
- s_1_1 - s_1_5 - 1000 r_1_1_5 >= -1001
t_1_1 - t_1_5 - 1000.000000 u_1_1_5 - 2.125013 s_1_5  + 2.125013 s_1_8  + 2000.000000 r_1_1_5 > -991.183422
s_2_1 + s_2_5 + 1000 r_2_1_5 >= 2
- s_2_1 - s_2_5 - 1000 r_2_1_5 >= -1001
t_2_1 - t_2_5 - 1000.000000 u_2_1_5 - 1.987784 s_2_5  + 1.987784 s_2_8  + 2000.000000 r_2_1_5 > -993.183561
t_1_6 - t_1_1 - 1004.250026 s_1_1  + 2.125013 s_1_8  + 2.125013 s_1_7  > -981.459922
t_1_6 - t_2_1 - 1003.975568 s_2_1  + 1.987784 s_2_8  + 1.987784 s_2_7  > -984.354736
t_2_6 - t_1_1 - 1004.250026 s_1_1  + 2.125013 s_1_8  + 2.125013 s_1_7  > -981.459922
t_2_6 - t_2_1 - 1003.975568 s_2_1  + 1.987784 s_2_8  + 1.987784 s_2_7  > -984.354736
t_1_1 - t_1_7 - 1000.000000 s_1_7  > -973.923764
t_1_1 - t_2_7 - 1000.000000 s_2_7  > -988.478389
t_2_1 - t_1_7 - 1000.000000 s_1_7  > -973.923764
t_2_1 - t_2_7 - 1000.000000 s_2_7  > -988.478389
t_1_1 - t_1_8 - 1000.000000 s_1_8  > -974.218889
t_1_1 - t_2_8 - 1000.000000 s_2_8  > -988.974700
t_2_1 - t_1_8 - 1000.000000 s_1_8  > -974.218889
t_2_1 - t_2_8 - 1000.000000 s_2_8  > -988.974700
s_1_2 + s_1_1 + 1000 r_1_1_2 >= 2
- s_1_2 - s_1_1 - 1000 r_1_1_2 >= -1001
t_1_2 - t_1_1 + 1000.000000 u_1_1_2 - 4.250026 s_1_1  + 2.125013 s_1_8  + 2.125013 s_1_7  + 2000.000000 r_1_1_2 > 18.540078
s_2_2 + s_2_1 + 1000 r_2_1_2 >= 2
- s_2_2 - s_2_1 - 1000 r_2_1_2 >= -1001
t_2_2 - t_2_1 + 1000.000000 u_2_1_2 - 3.975568 s_2_1  + 1.987784 s_2_8  + 1.987784 s_2_7  + 2000.000000 r_2_1_2 > 15.645264
s_1_2 + s_1_3 + 1000 r_1_2_3 >= 2
- s_1_2 - s_1_3 - 1000 r_1_2_3 >= -1001
t_1_2 - t_1_3 - 1000.000000 u_1_2_3 - 4.250026 s_1_3  + 2.125013 s_1_8  + 2.125013 s_1_7  + 2000.000000 r_1_2_3 > -998.272505
s_2_2 + s_2_3 + 1000 r_2_2_3 >= 2
- s_2_2 - s_2_3 - 1000 r_2_2_3 >= -1001
t_2_2 - t_2_3 - 1000.000000 u_2_2_3 - 3.975568 s_2_3  + 1.987784 s_2_8  + 1.987784 s_2_7  + 2000.000000 r_2_2_3 > -997.383422
s_1_2 + s_1_4 + 1000 r_1_2_4 >= 2
- s_1_2 - s_1_4 - 1000 r_1_2_4 >= -1001
t_1_2 - t_1_4 - 1000.000000 u_1_2_4 - 2.125013 s_1_4  + 2.125013 s_1_7  + 2000.000000 r_1_2_4 > -997.176143
s_2_2 + s_2_4 + 1000 r_2_2_4 >= 2
- s_2_2 - s_2_4 - 1000 r_2_2_4 >= -1001
t_2_2 - t_2_4 - 1000.000000 u_2_2_4 - 1.987784 s_2_4  + 1.987784 s_2_7  + 2000.000000 r_2_2_4 > -995.976803
s_1_2 + s_1_5 + 1000 r_1_2_5 >= 2
- s_1_2 - s_1_5 - 1000 r_1_2_5 >= -1001
t_1_2 - t_1_5 - 1000.000000 u_1_2_5 - 2.125013 s_1_5  + 2.125013 s_1_8  + 2000.000000 r_1_2_5 > -991.183422
s_2_2 + s_2_5 + 1000 r_2_2_5 >= 2
- s_2_2 - s_2_5 - 1000 r_2_2_5 >= -1001
t_2_2 - t_2_5 - 1000.000000 u_2_2_5 - 1.987784 s_2_5  + 1.987784 s_2_8  + 2000.000000 r_2_2_5 > -993.183561
t_1_6 - t_1_2 - 1002.125013 s_1_2  + 2.125013 s_1_7  > -981.378336
t_1_6 - t_2_2 - 1001.987784 s_2_2  + 1.987784 s_2_7  > -985.948881
t_2_6 - t_1_2 - 1002.125013 s_1_2  + 2.125013 s_1_7  > -981.378336
t_2_6 - t_2_2 - 1001.987784 s_2_2  + 1.987784 s_2_7  > -985.948881
t_1_2 - t_1_7 - 1000.000000 s_1_7  > -973.923764
t_1_2 - t_2_7 - 1000.000000 s_2_7  > -988.478389
t_2_2 - t_1_7 - 1000.000000 s_1_7  > -973.923764
t_2_2 - t_2_7 - 1000.000000 s_2_7  > -988.478389
s_1_2 + s_1_8 + 1000 r_1_2_8 >= 2
- s_1_2 - s_1_8 - 1000 r_1_2_8 >= -1001
t_1_2 - t_1_8 - 1000.000000 u_1_2_8 - 0.000000 s_1_8  + 2000.000000 r_1_2_8 > -974.218889
s_2_2 + s_2_8 + 1000 r_2_2_8 >= 2
- s_2_2 - s_2_8 - 1000 r_2_2_8 >= -1001
t_2_2 - t_2_8 - 1000.000000 u_2_2_8 - 0.000000 s_2_8  + 2000.000000 r_2_2_8 > -988.974700
s_1_3 + s_1_1 + 1000 r_1_1_3 >= 2
- s_1_3 - s_1_1 - 1000 r_1_1_3 >= -1001
t_1_3 - t_1_1 + 1000.000000 u_1_1_3 - 4.250026 s_1_1  + 2.125013 s_1_8  + 2.125013 s_1_7  + 2000.000000 r_1_1_3 > 18.540078
s_2_3 + s_2_1 + 1000 r_2_1_3 >= 2
- s_2_3 - s_2_1 - 1000 r_2_1_3 >= -1001
t_2_3 - t_2_1 + 1000.000000 u_2_1_3 - 3.975568 s_2_1  + 1.987784 s_2_8  + 1.987784 s_2_7  + 2000.000000 r_2_1_3 > 15.645264
s_1_3 + s_1_2 + 1000 r_1_2_3 >= 2
- s_1_3 - s_1_2 - 1000 r_1_2_3 >= -1001
t_1_3 - t_1_2 + 1000.000000 u_1_2_3 - 2.125013 s_1_2  + 2.125013 s_1_7  + 2000.000000 r_1_2_3 > 18.621664
s_2_3 + s_2_2 + 1000 r_2_2_3 >= 2
- s_2_3 - s_2_2 - 1000 r_2_2_3 >= -1001
t_2_3 - t_2_2 + 1000.000000 u_2_2_3 - 1.987784 s_2_2  + 1.987784 s_2_7  + 2000.000000 r_2_2_3 > 14.051119
s_1_3 + s_1_4 + 1000 r_1_3_4 >= 2
- s_1_3 - s_1_4 - 1000 r_1_3_4 >= -1001
t_1_3 - t_1_4 - 1000.000000 u_1_3_4 - 2.125013 s_1_4  + 2.125013 s_1_7  + 2000.000000 r_1_3_4 > -997.176143
s_2_3 + s_2_4 + 1000 r_2_3_4 >= 2
- s_2_3 - s_2_4 - 1000 r_2_3_4 >= -1001
t_2_3 - t_2_4 - 1000.000000 u_2_3_4 - 1.987784 s_2_4  + 1.987784 s_2_7  + 2000.000000 r_2_3_4 > -995.976803
s_1_3 + s_1_5 + 1000 r_1_3_5 >= 2
- s_1_3 - s_1_5 - 1000 r_1_3_5 >= -1001
t_1_3 - t_1_5 - 1000.000000 u_1_3_5 - 2.125013 s_1_5  + 2.125013 s_1_8  + 2000.000000 r_1_3_5 > -991.183422
s_2_3 + s_2_5 + 1000 r_2_3_5 >= 2
- s_2_3 - s_2_5 - 1000 r_2_3_5 >= -1001
t_2_3 - t_2_5 - 1000.000000 u_2_3_5 - 1.987784 s_2_5  + 1.987784 s_2_8  + 2000.000000 r_2_3_5 > -993.183561
t_1_6 - t_1_3 - 1004.250026 s_1_3  + 2.125013 s_1_8  + 2.125013 s_1_7  > -998.272505
t_1_6 - t_2_3 - 1003.975568 s_2_3  + 1.987784 s_2_8  + 1.987784 s_2_7  > -997.383422
t_2_6 - t_1_3 - 1004.250026 s_1_3  + 2.125013 s_1_8  + 2.125013 s_1_7  > -998.272505
t_2_6 - t_2_3 - 1003.975568 s_2_3  + 1.987784 s_2_8  + 1.987784 s_2_7  > -997.383422
t_1_3 - t_1_7 - 1000.000000 s_1_7  > -973.923764
t_1_3 - t_2_7 - 1000.000000 s_2_7  > -988.478389
t_2_3 - t_1_7 - 1000.000000 s_1_7  > -973.923764
t_2_3 - t_2_7 - 1000.000000 s_2_7  > -988.478389
t_1_3 - t_1_8 - 1000.000000 s_1_8  > -974.218889
t_1_3 - t_2_8 - 1000.000000 s_2_8  > -988.974700
t_2_3 - t_1_8 - 1000.000000 s_1_8  > -974.218889
t_2_3 - t_2_8 - 1000.000000 s_2_8  > -988.974700
s_1_4 + s_1_1 + 1000 r_1_1_4 >= 2
- s_1_4 - s_1_1 - 1000 r_1_1_4 >= -1001
t_1_4 - t_1_1 + 1000.000000 u_1_1_4 - 4.250026 s_1_1  + 2.125013 s_1_8  + 2.125013 s_1_7  + 2000.000000 r_1_1_4 > 18.540078
s_2_4 + s_2_1 + 1000 r_2_1_4 >= 2
- s_2_4 - s_2_1 - 1000 r_2_1_4 >= -1001
t_2_4 - t_2_1 + 1000.000000 u_2_1_4 - 3.975568 s_2_1  + 1.987784 s_2_8  + 1.987784 s_2_7  + 2000.000000 r_2_1_4 > 15.645264
s_1_4 + s_1_2 + 1000 r_1_2_4 >= 2
- s_1_4 - s_1_2 - 1000 r_1_2_4 >= -1001
t_1_4 - t_1_2 + 1000.000000 u_1_2_4 - 2.125013 s_1_2  + 2.125013 s_1_7  + 2000.000000 r_1_2_4 > 18.621664
s_2_4 + s_2_2 + 1000 r_2_2_4 >= 2
- s_2_4 - s_2_2 - 1000 r_2_2_4 >= -1001
t_2_4 - t_2_2 + 1000.000000 u_2_2_4 - 1.987784 s_2_2  + 1.987784 s_2_7  + 2000.000000 r_2_2_4 > 14.051119
s_1_4 + s_1_3 + 1000 r_1_3_4 >= 2
- s_1_4 - s_1_3 - 1000 r_1_3_4 >= -1001
t_1_4 - t_1_3 + 1000.000000 u_1_3_4 - 4.250026 s_1_3  + 2.125013 s_1_8  + 2.125013 s_1_7  + 2000.000000 r_1_3_4 > 1.727495
s_2_4 + s_2_3 + 1000 r_2_3_4 >= 2
- s_2_4 - s_2_3 - 1000 r_2_3_4 >= -1001
t_2_4 - t_2_3 + 1000.000000 u_2_3_4 - 3.975568 s_2_3  + 1.987784 s_2_8  + 1.987784 s_2_7  + 2000.000000 r_2_3_4 > 2.616578
s_1_4 + s_1_5 + 1000 r_1_4_5 >= 2
- s_1_4 - s_1_5 - 1000 r_1_4_5 >= -1001
t_1_4 - t_1_5 - 1000.000000 u_1_4_5 - 2.125013 s_1_5  + 2.125013 s_1_8  + 2000.000000 r_1_4_5 > -991.183422
s_2_4 + s_2_5 + 1000 r_2_4_5 >= 2
- s_2_4 - s_2_5 - 1000 r_2_4_5 >= -1001
t_2_4 - t_2_5 - 1000.000000 u_2_4_5 - 1.987784 s_2_5  + 1.987784 s_2_8  + 2000.000000 r_2_4_5 > -993.183561
t_1_6 - t_1_4 - 1002.125013 s_1_4  + 2.125013 s_1_7  > -997.176143
t_1_6 - t_2_4 - 1001.987784 s_2_4  + 1.987784 s_2_7  > -995.976803
t_2_6 - t_1_4 - 1002.125013 s_1_4  + 2.125013 s_1_7  > -997.176143
t_2_6 - t_2_4 - 1001.987784 s_2_4  + 1.987784 s_2_7  > -995.976803
t_1_4 - t_1_7 - 1000.000000 s_1_7  > -973.923764
t_1_4 - t_2_7 - 1000.000000 s_2_7  > -988.478389
t_2_4 - t_1_7 - 1000.000000 s_1_7  > -973.923764
t_2_4 - t_2_7 - 1000.000000 s_2_7  > -988.478389
s_1_4 + s_1_8 + 1000 r_1_4_8 >= 2
- s_1_4 - s_1_8 - 1000 r_1_4_8 >= -1001
t_1_4 - t_1_8 - 1000.000000 u_1_4_8 - 0.000000 s_1_8  + 2000.000000 r_1_4_8 > -974.218889
s_2_4 + s_2_8 + 1000 r_2_4_8 >= 2
- s_2_4 - s_2_8 - 1000 r_2_4_8 >= -1001
t_2_4 - t_2_8 - 1000.000000 u_2_4_8 - 0.000000 s_2_8  + 2000.000000 r_2_4_8 > -988.974700
s_1_5 + s_1_1 + 1000 r_1_1_5 >= 2
- s_1_5 - s_1_1 - 1000 r_1_1_5 >= -1001
t_1_5 - t_1_1 + 1000.000000 u_1_1_5 - 4.250026 s_1_1  + 2.125013 s_1_8  + 2.125013 s_1_7  + 2000.000000 r_1_1_5 > 18.540078
s_2_5 + s_2_1 + 1000 r_2_1_5 >= 2
- s_2_5 - s_2_1 - 1000 r_2_1_5 >= -1001
t_2_5 - t_2_1 + 1000.000000 u_2_1_5 - 3.975568 s_2_1  + 1.987784 s_2_8  + 1.987784 s_2_7  + 2000.000000 r_2_1_5 > 15.645264
s_1_5 + s_1_2 + 1000 r_1_2_5 >= 2
- s_1_5 - s_1_2 - 1000 r_1_2_5 >= -1001
t_1_5 - t_1_2 + 1000.000000 u_1_2_5 - 2.125013 s_1_2  + 2.125013 s_1_7  + 2000.000000 r_1_2_5 > 18.621664
s_2_5 + s_2_2 + 1000 r_2_2_5 >= 2
- s_2_5 - s_2_2 - 1000 r_2_2_5 >= -1001
t_2_5 - t_2_2 + 1000.000000 u_2_2_5 - 1.987784 s_2_2  + 1.987784 s_2_7  + 2000.000000 r_2_2_5 > 14.051119
s_1_5 + s_1_3 + 1000 r_1_3_5 >= 2
- s_1_5 - s_1_3 - 1000 r_1_3_5 >= -1001
t_1_5 - t_1_3 + 1000.000000 u_1_3_5 - 4.250026 s_1_3  + 2.125013 s_1_8  + 2.125013 s_1_7  + 2000.000000 r_1_3_5 > 1.727495
s_2_5 + s_2_3 + 1000 r_2_3_5 >= 2
- s_2_5 - s_2_3 - 1000 r_2_3_5 >= -1001
t_2_5 - t_2_3 + 1000.000000 u_2_3_5 - 3.975568 s_2_3  + 1.987784 s_2_8  + 1.987784 s_2_7  + 2000.000000 r_2_3_5 > 2.616578
s_1_5 + s_1_4 + 1000 r_1_4_5 >= 2
- s_1_5 - s_1_4 - 1000 r_1_4_5 >= -1001
t_1_5 - t_1_4 + 1000.000000 u_1_4_5 - 2.125013 s_1_4  + 2.125013 s_1_7  + 2000.000000 r_1_4_5 > 2.823857
s_2_5 + s_2_4 + 1000 r_2_4_5 >= 2
- s_2_5 - s_2_4 - 1000 r_2_4_5 >= -1001
t_2_5 - t_2_4 + 1000.000000 u_2_4_5 - 1.987784 s_2_4  + 1.987784 s_2_7  + 2000.000000 r_2_4_5 > 4.023197
t_1_6 - t_1_5 - 1002.125013 s_1_5  + 2.125013 s_1_8  > -991.183422
t_1_6 - t_2_5 - 1001.987784 s_2_5  + 1.987784 s_2_8  > -993.183561
t_2_6 - t_1_5 - 1002.125013 s_1_5  + 2.125013 s_1_8  > -991.183422
t_2_6 - t_2_5 - 1001.987784 s_2_5  + 1.987784 s_2_8  > -993.183561
s_1_5 + s_1_7 + 1000 r_1_5_7 >= 2
- s_1_5 - s_1_7 - 1000 r_1_5_7 >= -1001
t_1_5 - t_1_7 - 1000.000000 u_1_5_7 - 0.000000 s_1_7  + 2000.000000 r_1_5_7 > -973.923764
s_2_5 + s_2_7 + 1000 r_2_5_7 >= 2
- s_2_5 - s_2_7 - 1000 r_2_5_7 >= -1001
t_2_5 - t_2_7 - 1000.000000 u_2_5_7 - 0.000000 s_2_7  + 2000.000000 r_2_5_7 > -988.478389
t_1_5 - t_1_8 - 1000.000000 s_1_8  > -974.218889
t_1_5 - t_2_8 - 1000.000000 s_2_8  > -988.974700
t_2_5 - t_1_8 - 1000.000000 s_1_8  > -974.218889
t_2_5 - t_2_8 - 1000.000000 s_2_8  > -988.974700
t_1_6 - t_1_7 - 1000.000000 s_1_7  > -973.923764
t_1_6 - t_2_7 - 1000.000000 s_2_7  > -988.478389
t_2_6 - t_1_7 - 1000.000000 s_1_7  > -973.923764
t_2_6 - t_2_7 - 1000.000000 s_2_7  > -988.478389
s_1_7 + s_1_5 + 1000 r_1_5_7 >= 2
- s_1_7 - s_1_5 - 1000 r_1_5_7 >= -1001
t_1_7 - t_1_5 + 1000.000000 u_1_5_7 - 2.125013 s_1_5  + 2.125013 s_1_8  + 2000.000000 r_1_5_7 > 8.816578
s_2_7 + s_2_5 + 1000 r_2_5_7 >= 2
- s_2_7 - s_2_5 - 1000 r_2_5_7 >= -1001
t_2_7 - t_2_5 + 1000.000000 u_2_5_7 - 1.987784 s_2_5  + 1.987784 s_2_8  + 2000.000000 r_2_5_7 > 6.816439
s_1_7 + s_1_8 + 1000 r_1_7_8 >= 2
- s_1_7 - s_1_8 - 1000 r_1_7_8 >= -1001
t_1_7 - t_1_8 - 1000.000000 u_1_7_8 - 0.000000 s_1_8  + 2000.000000 r_1_7_8 > -974.218889
s_2_7 + s_2_8 + 1000 r_2_7_8 >= 2
- s_2_7 - s_2_8 - 1000 r_2_7_8 >= -1001
t_2_7 - t_2_8 - 1000.000000 u_2_7_8 - 0.000000 s_2_8  + 2000.000000 r_2_7_8 > -988.974700
s_1_8 + s_1_2 + 1000 r_1_2_8 >= 2
- s_1_8 - s_1_2 - 1000 r_1_2_8 >= -1001
t_1_8 - t_1_2 + 1000.000000 u_1_2_8 - 2.125013 s_1_2  + 2.125013 s_1_7  + 2000.000000 r_1_2_8 > 18.621664
s_2_8 + s_2_2 + 1000 r_2_2_8 >= 2
- s_2_8 - s_2_2 - 1000 r_2_2_8 >= -1001
t_2_8 - t_2_2 + 1000.000000 u_2_2_8 - 1.987784 s_2_2  + 1.987784 s_2_7  + 2000.000000 r_2_2_8 > 14.051119
s_1_8 + s_1_4 + 1000 r_1_4_8 >= 2
- s_1_8 - s_1_4 - 1000 r_1_4_8 >= -1001
t_1_8 - t_1_4 + 1000.000000 u_1_4_8 - 2.125013 s_1_4  + 2.125013 s_1_7  + 2000.000000 r_1_4_8 > 2.823857
s_2_8 + s_2_4 + 1000 r_2_4_8 >= 2
- s_2_8 - s_2_4 - 1000 r_2_4_8 >= -1001
t_2_8 - t_2_4 + 1000.000000 u_2_4_8 - 1.987784 s_2_4  + 1.987784 s_2_7  + 2000.000000 r_2_4_8 > 4.023197
s_1_8 + s_1_7 + 1000 r_1_7_8 >= 2
- s_1_8 - s_1_7 - 1000 r_1_7_8 >= -1001
t_1_8 - t_1_7 + 1000.000000 u_1_7_8 - 0.000000 s_1_7  + 2000.000000 r_1_7_8 > 26.076236
s_2_8 + s_2_7 + 1000 r_2_7_8 >= 2
- s_2_8 - s_2_7 - 1000 r_2_7_8 >= -1001
t_2_8 - t_2_7 + 1000.000000 u_2_7_8 - 0.000000 s_2_7  + 2000.000000 r_2_7_8 > 11.521611
Binary
s_1_1
s_2_1
s_1_2
s_2_2
s_1_3
s_2_3
s_1_4
s_2_4
s_1_5
s_2_5
s_1_6
s_2_6
s_1_7
s_2_7
s_1_8
s_2_8
u_1_1_2
r_1_1_2
u_2_1_2
r_2_1_2
u_1_1_3
r_1_1_3
u_2_1_3
r_2_1_3
u_1_1_4
r_1_1_4
u_2_1_4
r_2_1_4
u_1_1_5
r_1_1_5
u_2_1_5
r_2_1_5
u_1_2_3
r_1_2_3
u_2_2_3
r_2_2_3
u_1_2_4
r_1_2_4
u_2_2_4
r_2_2_4
u_1_2_5
r_1_2_5
u_2_2_5
r_2_2_5
u_1_2_8
r_1_2_8
u_2_2_8
r_2_2_8
u_1_3_4
r_1_3_4
u_2_3_4
r_2_3_4
u_1_3_5
r_1_3_5
u_2_3_5
r_2_3_5
u_1_4_5
r_1_4_5
u_2_4_5
r_2_4_5
u_1_4_8
r_1_4_8
u_2_4_8
r_2_4_8
u_1_5_7
r_1_5_7
u_2_5_7
r_2_5_7
u_1_7_8
r_1_7_8
u_2_7_8
r_2_7_8

End
